NAME : pairopt
TYPE : ACVRP
DIMENSION : 9
EDGE_WEIGHT_TYPE : EXPLICIT
EDGE_WEIGHT_FORMAT : FULL_MATRIX
CAPACITY : 396
VEHICLES : 2
EDGE_WEIGHT_SECTION
100000 -100000 -100000 100000 100000 100000 100000 100000 100000 
100000 100000 1000000 2722 2691 409 1566 542 1834 
100000 1000000 100000 1060 2366 2335 2602 2658 2985 
0 0 0 100000 1949 3001 3269 3305 3640 
0 0 0 1949 100000 3200 3432 3413 3724 
0 0 0 3001 3200 100000 189 237 465 
0 0 0 3269 3432 189 100000 89 278 
0 0 0 3305 3413 237 89 100000 229 
0 0 0 3640 3724 465 278 229 100000 
DEMAND_SECTION
1 0
2 0
3 0
4 58
5 49
6 144
7 20
8 99
9 155
DEPOT_SECTION
1
EOF